Traveling Salesman Problem/TSP_generados/Aleatorio1620391004_12.tsp
NAME: Aleatorio1620391004_12.tsp
COMMENT: Randomly generated scenario
TYPE: TSP
DIMENSION: 12
EDGE_WEIGHT_TYPE: ATT
NODE_COORD_SECTION
1 49.68 47.62
2 28.73 44.47
3 49.5 3.45
4 27.11 6.1
5 36.99 41.74
6 44.56 21.41
7 10.02 41.22
8 40.51 6.04
9 16.88 45.25
10 35.79 13.57
11 28.34 18.97
12 25.27 21.65
