Traveling Salesman Problem/TSP_generados/Aleatorio1620391004_12.opt.tour
NAME: Aleatorio1620391004_12.opt.tour
COMMENT: Optimal solution for Aleatorio1620391004_12 (159.35828259078016)
TYPE: TOUR
DIMENSION: 12
TOUR_SECTION
1 5 2 9 7 12 11 4 10 8 3 6
-1
EOF
